data/solutions/recovery/degenerate/moderate/binding/degenerate_moderate_instance4/28.sol
Elapsed time: 0.03
Upper bound: 6172019.0
Planning weighted value: 27669929.0
C[0]=6172019.0
C[1]=6160803.0
C[2]=0.0
y[0]=0
y[1]=0
y[2]=1
y[3]=0
y[4]=0
y[5]=0
y[6]=0
y[7]=1
y[8]=1
y[9]=1
y[10]=0
y[11]=0
y[12]=1
y[13]=0
y[14]=0
y[15]=0
y[16]=0
y[17]=1
y[18]=0
y[19]=1
y[20]=1
y[21]=0
y[22]=1
y[23]=1
y[24]=0
