data/solutions/recovery/degenerate/moderate/binding/degenerate_moderate_instance4/28.log

Log started (V12.6.3.0) Fri Apr 20 23:04:14 2018

New value for default parallel thread count: 1

Problem '/tmp/tmpXOBVxp.pyomo.lp' read.
Read time = 0.00 sec. (0.02 ticks)

Problem name         : /tmp/tmpXOBVxp.pyomo.lp
Objective sense      : Minimize
Variables            :      80  [Nneg: 1,  Binary: 75,  General Integer: 4]
Objective nonzeros   :       1
Linear constraints   :      58  [Less: 28,  Equal: 30]
  Nonzeros           :     876
  RHS nonzeros       :      26

Variables            : Min LB: 0.000000         Max UB: 1.000000       
Objective nonzeros   : Min   : 1.000000         Max   : 1.000000       
Linear constraints   :
  Nonzeros           : Min   : 1.000000         Max   : 1072398.       
  RHS nonzeros       : Min   : 1.000000         Max   : 1.000000       
Tried aggregator 2 times.
MIP Presolve eliminated 45 rows and 59 columns.
Aggregator did 11 substitutions.
Reduced MIP has 2 rows, 10 columns, and 20 nonzeros.
Reduced MIP has 9 binaries, 1 generals, 0 SOSs, and 0 indicators.
Presolve time = 0.00 sec. (0.12 ticks)
Found incumbent of value 8597180.000000 after 0.00 sec. (0.15 ticks)
Probing fixed 0 vars, tightened 2 bounds.
Probing time = 0.00 sec. (0.00 ticks)
Tried aggregator 1 time.
Reduced MIP has 2 rows, 10 columns, and 20 nonzeros.
Reduced MIP has 9 binaries, 1 generals, 0 SOSs, and 0 indicators.
Presolve time = 0.00 sec. (0.01 ticks)
Probing time = 0.00 sec. (0.00 ticks)
MIP emphasis: balance optimality and feasibility.
MIP search method: dynamic search.
Parallel mode: none, using 1 thread.
Root relaxation solution time = 0.00 sec. (0.01 ticks)

        Nodes                                         Cuts/
   Node  Left     Objective  IInf  Best Integer    Best Bound    ItCnt     Gap

*     0+    0                      8597180.0000  4808040.0000            44.07%
      0     0  6166411.0000     1  8597180.0000  6166411.0000        0   28.27%
*     0+    0                      6643298.0000  6166411.0000             7.18%
      0     0  6166411.0000     1  6643298.0000      Fract: 1        3    7.18%
*     0+    0                      6380939.0000  6166411.0000             3.36%
      0     0  6166411.0000     2  6380939.0000   LiftProj: 1        4    3.36%
*     0+    0                      6291979.0000  6166411.0000             2.00%
*     0+    0                      6252612.0000  6166411.0000             1.38%
      0     2  6166411.0000     2  6252612.0000  6166411.0000        4    1.38%
Elapsed time = 0.00 sec. (0.32 ticks, tree = 0.01 MB, solutions = 5)
*     4     4      integral     0  6223643.0000  6166411.0000       10    0.92%
*     6     2      integral     0  6181514.0000  6166411.0000       11    0.24%
*    13     5      integral     0  6172019.0000  6166411.0000       21    0.09%

Lift and project cuts applied:  1
Gomory fractional cuts applied:  1

Root node processing (before b&c):
  Real time             =    0.00 sec. (0.33 ticks)
Sequential b&c:
  Real time             =    0.00 sec. (0.07 ticks)
                          ------------
Total (root+branch&cut) =    0.00 sec. (0.40 ticks)

Solution pool: 8 solutions saved.

MIP - Integer optimal solution:  Objective =  6.1720190000e+06
Solution time =    0.00 sec.  Iterations = 26  Nodes = 23
Deterministic time = 0.40 ticks  (148.41 ticks/sec)


Incumbent solution written to file '/tmp/tmpNnJonT.cplex.sol'.
